NAME : pr107.44869.tour
COMMENT : Cost = 0_44869
COMMENT : Found by LKH [Keld Helsgaun] Thu Nov 16 16:26:23 2017
TYPE : TOUR
DIMENSION : 109
TOUR_SECTION
1
2
63
64
66
67
65
68
69
72
71
70
73
62
74
61
76
77
75
78
80
83
82
79
81
60
84
59
86
87
85
88
90
93
92
91
89
58
94
57
96
97
95
98
100
103
102
99
101
56
104
105
107
106
55
50
53
54
51
52
49
46
45
43
48
47
44
41
38
42
39
40
37
34
33
31
36
35
32
29
26
30
27
28
25
22
19
21
24
23
20
17
14
18
15
16
13
12
11
8
10
9
7
5
6
108
4
109
3
-1
EOF
